(set-info :smt-lib-version 2.6)
(set-logic ALL)
(declare-sort Nat$ 0)
(declare-fun to_int$ (Nat$) Int)
(set-info :source |Generator: Rodin SMT Plug-in|)
(set-info :license "https://creativecommons.org/licenses/by-nc/4.0/")
(set-info :category "industrial")
(set-info :status unsat)
(declare-sort D 0)
(declare-sort PZZ 0)
(declare-fun MS (Int Int PZZ) Bool)
(declare-fun idata (Int PZZ) Bool)
(declare-fun rd (Int D) Bool)
(declare-fun wt (Int D) Bool)
(declare-fun wtp (Int D) Bool)
(declare-fun adr_r () Int)
(declare-fun adr_w () Int)
(declare-fun f () PZZ)
(declare-fun g () PZZ)
(declare-fun indx_r () Int)
(declare-fun indx_wp () Int)
(declare-fun latest () Int)
(declare-fun m () Int)
(declare-fun pair_w () Int)
(declare-fun r () Int)
(declare-fun reading () Int)
(declare-fun slot () PZZ)
(declare-fun u () Int)
(declare-fun w () Int)
(declare-fun y () D)
(assert (forall ((x136 Int) (x137 Int)) (exists ((X PZZ)) (and (MS x136 x137 X) (forall ((y0 Int) (y1 Int)) (=> (MS y0 y1 X) (and (= y0 x136) (= y1 x137))))))))
(assert (! (= adr_w 1) :named hyp1))
(assert (! (forall ((x Int)) (= (exists ((x0 D)) (wtp x x0)) (and (<= 1 x) (<= x w)))) :named hyp2))
(assert (! (= pair_w latest) :named hyp3))
(assert (! (< 0 w) :named hyp4))
(assert (! (and (forall ((x1 Int) (x2 D)) (=> (wt x1 x2) (and (<= 1 x1) (<= x1 w)))) (forall ((x3 Int) (x4 D) (x5 D)) (=> (and (wt x3 x4) (wt x3 x5)) (= x4 x5))) (forall ((x6 Int)) (=> (and (<= 1 x6) (<= x6 w)) (exists ((x7 D)) (wt x6 x7))))) :named hyp5))
(assert (! (and (forall ((x8 Int) (x9 D)) (=> (rd x8 x9) (and (<= 1 x8) (<= x8 r)))) (forall ((x10 Int) (x11 D) (x12 D)) (=> (and (rd x10 x11) (rd x10 x12)) (= x11 x12))) (forall ((x13 Int)) (=> (and (<= 1 x13) (<= x13 r)) (exists ((x14 D)) (rd x13 x14))))) :named hyp6))
(assert (! (and (forall ((x15 Int) (x16 Int)) (=> (MS x15 x16 f) (and (<= 1 x15) (<= x15 r) (<= 1 x16) (<= x16 w)))) (forall ((x17 Int) (x18 Int) (x19 Int)) (=> (and (MS x17 x18 f) (MS x17 x19 f)) (= x18 x19))) (forall ((x20 Int)) (=> (and (<= 1 x20) (<= x20 r)) (exists ((x21 Int)) (MS x20 x21 f))))) :named hyp7))
(assert (! (and (forall ((x22 Int) (x23 Int)) (=> (MS x22 x23 g) (and (<= 1 x22) (<= x22 r) (<= 1 x23) (<= x23 w)))) (forall ((x24 Int) (x25 Int) (x26 Int)) (=> (and (MS x24 x25 g) (MS x24 x26 g)) (= x25 x26))) (forall ((x27 Int)) (=> (and (<= 1 x27) (<= x27 r)) (exists ((x28 Int)) (MS x27 x28 g))))) :named hyp8))
(assert (! (forall ((x29 Int) (x30 D)) (= (rd x29 x30) (exists ((x31 Int)) (and (MS x29 x31 f) (wt x31 x30))))) :named hyp9))
(assert (! (or (= adr_w 1) (= adr_w 2) (= adr_w 3) (= adr_w 4) (= adr_w 5)) :named hyp10))
(assert (! (and (forall ((x32 Int) (x33 D)) (=> (wtp x32 x33) (< 0 x32))) (forall ((x34 Int) (x35 D) (x36 D)) (=> (and (wtp x34 x35) (wtp x34 x36)) (= x35 x36)))) :named hyp11))
(assert (! (=> (= adr_r 1) (rd r y)) :named hyp12))
(assert (! (=> (= adr_r 1) (and (exists ((x37 D)) (rd r x37)) (forall ((x38 Int) (x39 D) (x40 D)) (=> (and (rd x38 x39) (rd x38 x40)) (= x39 x40))))) :named hyp13))
(assert (! (forall ((x41 Int) (x42 D)) (=> (wt x41 x42) (wtp x41 x42))) :named hyp14))
(assert (! (=> (or (= adr_w 2) (= adr_w 3) (= adr_w 4)) (forall ((x43 Int)) (= (exists ((x44 D)) (wtp x43 x44)) (and (<= 1 x43) (<= x43 (+ w 1)))))) :named hyp15))
(assert (! (=> (= adr_w 5) (or (forall ((x45 Int)) (= (exists ((x46 D)) (wtp x45 x46)) (and (<= 1 x45) (<= x45 w)))) (forall ((x47 Int)) (= (exists ((x48 D)) (wtp x47 x48)) (and (<= 1 x47) (<= x47 (+ w 1))))))) :named hyp16))
(assert (! (or (= reading 0) (= reading 1)) :named hyp17))
(assert (! (or (= pair_w 0) (= pair_w 1)) :named hyp18))
(assert (! (or (= latest 0) (= latest 1)) :named hyp19))
(assert (! (and (forall ((x49 Int) (x50 PZZ)) (=> (idata x49 x50) (and (or (= x49 0) (= x49 1)) (forall ((x51 Int) (x52 Int)) (=> (MS x51 x52 x50) (and (or (= x51 0) (= x51 1)) (exists ((x53 D)) (wtp x52 x53))))) (forall ((x54 Int) (x55 Int) (x56 Int)) (=> (and (MS x54 x55 x50) (MS x54 x56 x50)) (= x55 x56))) (forall ((x57 Int)) (=> (or (= x57 0) (= x57 1)) (exists ((x58 Int)) (MS x57 x58 x50))))))) (forall ((x59 Int) (x60 PZZ) (x61 PZZ)) (=> (and (idata x59 x60) (idata x59 x61)) (forall ((x62 Int) (x63 Int)) (= (MS x62 x63 x60) (MS x62 x63 x61))))) (forall ((x64 Int)) (=> (or (= x64 0) (= x64 1)) (exists ((x65 PZZ)) (idata x64 x65))))) :named hyp20))
(assert (! (=> (= adr_r 2) (and (forall ((x66 Int)) (=> (exists ((x67 PZZ)) (and (idata reading x67) (exists ((x68 Int)) (and (MS reading x68 slot) (MS x68 x66 x67))))) (<= u x66))) (forall ((x69 Int)) (=> (exists ((x70 PZZ)) (and (idata reading x70) (exists ((x71 Int)) (and (MS reading x71 slot) (MS x71 x69 x70))))) (<= x69 w))))) :named hyp21))
(assert (! (=> (= adr_r 3) (exists ((x72 PZZ)) (and (idata reading x72) (MS indx_r m x72)))) :named hyp22))
(assert (! (exists ((x73 PZZ)) (and (idata latest x73) (exists ((x74 Int)) (and (MS latest x74 slot) (MS x74 w x73))))) :named hyp23))
(assert (! (exists ((x75 PZZ)) (idata latest x75)) :named hyp24))
(assert (! (forall ((x76 Int) (x77 PZZ) (x78 PZZ)) (=> (and (idata x76 x77) (idata x76 x78)) (forall ((x79 Int) (x80 Int)) (= (MS x79 x80 x77) (MS x79 x80 x78))))) :named hyp25))
(assert (! (exists ((x81 Int)) (MS latest x81 slot)) :named hyp26))
(assert (! (exists ((x82 Int) (x83 PZZ)) (and (idata latest x83) (exists ((x84 Int)) (and (MS latest x84 slot) (MS x84 x82 x83))))) :named hyp27))
(assert (! (forall ((x85 Int) (x86 Int) (x87 Int)) (=> (and (exists ((x88 PZZ)) (and (idata latest x88) (MS x85 x86 x88))) (exists ((x89 PZZ)) (and (idata latest x89) (MS x85 x87 x89)))) (= x86 x87))) :named hyp28))
(assert (! (=> (= reading pair_w) (= latest reading)) :named hyp29))
(assert (! (=> (or (= adr_w 1) (= adr_w 5)) (MS pair_w indx_wp slot)) :named hyp30))
(assert (! (=> (or (= adr_w 2) (= adr_w 3) (= adr_w 4)) (forall ((x90 Int)) (=> (MS pair_w x90 slot) (= indx_wp (- 1 x90))))) :named hyp31))
(assert (! (exists ((x91 PZZ)) (and (idata pair_w x91) (exists ((x92 Int)) (and (exists ((x93 D)) (wtp x92 x93)) (forall ((x94 Int)) (=> (exists ((x95 D)) (wtp x94 x95)) (<= x94 x92))) (MS indx_wp x92 x91))))) :named hyp32))
(assert (! (exists ((x96 PZZ)) (idata pair_w x96)) :named hyp33))
(assert (! (exists ((x97 Int) (x98 PZZ)) (and (idata pair_w x98) (MS indx_wp x97 x98))) :named hyp34))
(assert (! (forall ((x99 Int) (x100 Int) (x101 Int)) (=> (and (exists ((x102 PZZ)) (and (idata pair_w x102) (MS x99 x100 x102))) (exists ((x103 PZZ)) (and (idata pair_w x103) (MS x99 x101 x103)))) (= x100 x101))) :named hyp35))
(assert (! (exists ((b Int)) (forall ((x104 Int)) (=> (exists ((x105 D)) (wtp x104 x105)) (<= x104 b)))) :named hyp36))
(assert (! (not (= reading (- 1 reading))) :named hyp37))
(assert (! (not (exists ((x106 Int) (x107 Int)) (and (= x106 (- 1 reading)) (forall ((x108 Int)) (=> (exists ((x109 Int)) (and (= x109 (- 1 reading)) (MS x109 x108 slot))) (= x107 (- 1 x108)))) (MS x106 x107 slot)))) :named hyp38))
(assert (! (exists ((x110 Int) (x111 Int)) (and (= x111 (- 1 reading)) (MS x111 x110 slot))) :named hyp39))
(assert (! (not (forall ((x112 Int) (x113 D)) (not (wtp x112 x113)))) :named hyp40))
(assert (! (=> (= adr_r 2) (and (exists ((x114 PZZ)) (idata reading x114)) (exists ((x115 Int)) (MS reading x115 slot)) (exists ((x116 Int) (x117 PZZ)) (and (idata reading x117) (exists ((x118 Int)) (and (MS reading x118 slot) (MS x118 x116 x117))))) (forall ((x119 Int) (x120 Int) (x121 Int)) (=> (and (exists ((x122 PZZ)) (and (idata reading x122) (MS x119 x120 x122))) (exists ((x123 PZZ)) (and (idata reading x123) (MS x119 x121 x123)))) (= x120 x121))))) :named hyp41))
(assert (! (=> (= adr_r 3) (and (exists ((x124 PZZ)) (idata reading x124)) (exists ((x125 Int) (x126 PZZ)) (and (idata reading x126) (MS indx_r x125 x126))) (forall ((x127 Int) (x128 Int) (x129 Int)) (=> (and (exists ((x130 PZZ)) (and (idata reading x130) (MS x127 x128 x130))) (exists ((x131 PZZ)) (and (idata reading x131) (MS x127 x129 x131)))) (= x128 x129))))) :named hyp42))
(assert (! (=> (or (= adr_w 1) (= adr_w 5)) (exists ((x132 Int)) (MS pair_w x132 slot))) :named hyp43))
(assert (! (=> (or (= adr_w 2) (= adr_w 3) (= adr_w 4)) (exists ((x133 Int)) (MS pair_w x133 slot))) :named hyp44))
(assert (! (not (exists ((x134 PZZ) (x135 Int)) (and (= x135 (- 1 reading)) (idata x135 x134)))) :named goal))
(check-sat)
(exit)
